573116
538473
100620
390754
910598
32819
308542
514339
978780
816879
39346
820970
812198
154083
446533
512865
159432
632616
597153
761923
145738
522006
732932
73306
144622
963794
336137
235239
937864
859222
750063
361048
685853
267075
374569
432769
578775
231272
133837
315225
294012
220488
996537
425300
546329
781021
817827
113201
84714
579347
668153
340817
463458
742203
115539
426866
794862
289795
636089
469332
477177
501603
441666
552761
583678
254514
534233
1323
197474
729419
723090
748086
481510
395117
674245
356812
684344
847327
800434
354604
599684
905773
945790
312107
221281
353792
370930
542482
464683
842581
502239
381247
863465
776145
273386
756098
89937
443233
657603
159179